
Gurobi 6.5.2 (linux64) logging started Mon Aug 29 10:58:08 2016

Optimize a model with 201 rows, 3565 columns and 7229 nonzeros
Coefficient statistics:
  Matrix range    [1e+00, 2e+00]
  Objective range [1e+00, 1e+02]
  Bounds range    [1e+00, 1e+00]
  RHS range       [1e+00, 1e+00]
Found heuristic solution: objective 4519
Presolve removed 73 rows and 42 columns
Presolve time: 0.01s
Presolved: 128 rows, 3523 columns, 7069 nonzeros
Variable types: 0 continuous, 3523 integer (3523 binary)

Root relaxation: objective 8.445000e+02, 148 iterations, 0.00 seconds

    Nodes    |    Current Node    |     Objective Bounds      |     Work
 Expl Unexpl |  Obj  Depth IntInf | Incumbent    BestBd   Gap | It/Node Time

     0     0  844.50000    0   20 4519.00000  844.50000  81.3%     -    0s
H    0     0                     930.0000000  844.50000  9.19%     -    0s
H    0     0                     849.0000000  844.50000  0.53%     -    0s
     0     0     cutoff    0       849.00000  848.00085  0.12%     -    0s

Cutting planes:
  Zero half: 6

Explored 0 nodes (163 simplex iterations) in 0.04 seconds
Thread count was 8 (of 8 available processors)

Optimal solution found (tolerance 1.00e-04)
Best objective 8.490000000000e+02, best bound 8.490000000000e+02, gap 0.0%
